
Gurobi 9.1.2 (win64, Java) logging started Thu Nov 11 18:19:59 2021

Academic license - for non-commercial use only - expires 2022-10-30
Gurobi Optimizer version 9.1.2 build v9.1.2rc0 (win64)
Thread count: 6 physical cores, 12 logical processors, using up to 12 threads
Optimize a model with 50 rows, 400 columns and 800 nonzeros
Model fingerprint: 0x851c68f4
Variable types: 0 continuous, 400 integer (400 binary)
Coefficient statistics:
  Matrix range     [1e+00, 1e+03]
  Objective range  [3e+01, 1e+03]
  Bounds range     [1e+00, 1e+00]
  RHS range        [1e+00, 2e+03]
Found heuristic solution: objective 13952.000000
Presolve removed 0 rows and 66 columns
Presolve time: 0.00s
Presolved: 50 rows, 334 columns, 668 nonzeros
Variable types: 0 continuous, 334 integer (334 binary)
Presolved: 50 rows, 334 columns, 668 nonzeros


Root relaxation: objective 1.653447e+04, 110 iterations, 0.00 seconds

    Nodes    |    Current Node    |     Objective Bounds      |     Work
 Expl Unexpl |  Obj  Depth IntInf | Incumbent    BestBd   Gap | It/Node Time

     0     0 16534.4740    0   15 13952.0000 16534.4740  18.5%     -    0s
H    0     0                    15250.000000 16534.4740  8.42%     -    0s
H    0     0                    15720.000000 16534.4740  5.18%     -    0s
H    0     0                    15874.000000 16534.4740  4.16%     -    0s
     0     0 16534.4740    0   28 15874.0000 16534.4740  4.16%     -    0s
H    0     0                    16019.000000 16534.4740  3.22%     -    0s
     0     0 16534.4740    0   30 16019.0000 16534.4740  3.22%     -    0s
H    0     0                    16259.000000 16534.4740  1.69%     -    0s
     0     0 16526.0000    0   25 16259.0000 16526.0000  1.64%     -    0s
     0     0 16526.0000    0   18 16259.0000 16526.0000  1.64%     -    0s
     0     0 16526.0000    0   18 16259.0000 16526.0000  1.64%     -    0s
     0     0 16526.0000    0   23 16259.0000 16526.0000  1.64%     -    0s
H    0     0                    16390.000000 16526.0000  0.83%     -    0s
     0     0 16526.0000    0   24 16390.0000 16526.0000  0.83%     -    0s
     0     0 16526.0000    0   20 16390.0000 16526.0000  0.83%     -    0s
     0     0 16526.0000    0   16 16390.0000 16526.0000  0.83%     -    0s
     0     0 16526.0000    0   26 16390.0000 16526.0000  0.83%     -    0s
     0     0 16526.0000    0   25 16390.0000 16526.0000  0.83%     -    0s
     0     0 16526.0000    0   27 16390.0000 16526.0000  0.83%     -    0s
     0     0 16526.0000    0   18 16390.0000 16526.0000  0.83%     -    0s
     0     2 16526.0000    0   18 16390.0000 16526.0000  0.83%     -    0s
H  141   277                    16420.000000 16526.0000  0.65%  23.2    0s
 10015  3920 16521.6675   28   71 16420.0000 16526.0000  0.65%  36.6    5s
 15501  5986 16515.0868   28   58 16420.0000 16526.0000  0.65%  43.3   10s
 20140  7951 16462.7467   35   63 16420.0000 16526.0000  0.65%  48.3   15s
 24392  9301 16460.0484   27   76 16420.0000 16526.0000  0.65%  53.3   20s
 28802 11204 16431.8462   40   35 16420.0000 16526.0000  0.65%  55.8   25s
 33148 11982 16462.4464   34   66 16420.0000 16525.8639  0.64%  57.3   30s
 36733 12362 16525.6288   23   38 16420.0000 16525.6288  0.64%  60.1   35s
 41605 12672 16424.4013   38   75 16420.0000 16525.6288  0.64%  59.9   40s
 45883 12449 16525.6288   36   41 16420.0000 16525.6288  0.64%  61.0   45s
 51516 11563 16425.4913   47   55 16420.0000 16522.8032  0.63%  60.7   50s
 59707 10275     cutoff   40      16420.0000 16515.2687  0.58%  59.5   55s
 69925  7392 16485.6098   26   69 16420.0000 16501.8408  0.50%  57.3   60s
 85498  1410     cutoff   36      16420.0000 16459.7681  0.24%  52.8   65s

Cutting planes:
  Gomory: 25
  Cover: 664
  Clique: 14
  MIR: 125
  StrongCG: 106
  Flow cover: 39
  Inf proof: 2
  Zero half: 11
  RLT: 2

Explored 91907 nodes (4753009 simplex iterations) in 66.93 seconds
Thread count was 12 (of 12 available processors)

Solution count 8: 16420 16390 16259 ... 13952

Optimal solution found (tolerance 1.00e-12)
Best objective 1.642000000000e+04, best bound 1.642000000000e+04, gap 0.0000%
